NAME : mr44
COMMENT : 44-city problem (DISC)
TYPE : TSP
DIMENSION : 44
EDGE_WEIGHT_TYPE : EUC_2D
NODE_COORD_SECTION
1 84 84
2 11 72
3 75 70
4 37 94
5 36 89
6 61 10
7 40 46
8 41 50
9 51 11
10 72 16
11 97 99
12 46 28
13 43 90
14 12 17
15 22 14
16 96 32
17 95 31
18 89 43
19 65 34
20 22 57
21 64 10
22 14 80
23 46 27
24 88 92
25 26 91
26 67 2
27 87 86
28 15 68
29 57 4
30 16 31
31 18 57
32 11 60
33 21 69
34 46 64
35 80 94
36 100 74
37 81 75
38 38 11
39 52 50
40 6 87
41 72 2
42 8 19
43 89 12
44 73 86
EOF
